clingo version 4.5.4
Reading from ...utputs/output_1710588059.304377/asp.lp
Solving...
Answer: 1
perform(unstack(b,a),0) perform(pickup(a),2) perform(stack(a,b),3) perform(stack(b,c),1)
SATISFIABLE

Models       : 1     
Calls        : 1
Time         : 0.037s (Solving: 0.00s 1st Model: 0.00s Unsat: 0.00s)
CPU Time     : 0.000s
